data;


param d:= 100;
param r:=5;
param p:=0.860000;
param M:=1000;
param U:=
         1         1       -6.330286e-01
         2         1        2.958603e-01
         3         1        1.239733e+00
         4         1       -9.848230e-01
         5         1        4.758576e-01
         6         1       -6.156446e-01
         7         1        5.322921e-01
         8         1        4.284611e-01
         9         1       -7.752134e-01
        10         1        6.612794e-01
        11         1       -1.079177e+00
        12         1        1.128500e-01
        13         1       -5.365056e-01
        14         1       -6.783305e-01
        15         1       -1.131317e+00
        16         1       -9.335854e-01
        17         1       -4.537138e-01
        18         1       -7.081683e-01
        19         1       -5.734855e-01
        20         1       -9.905274e-02
        21         1        6.964446e-01
        22         1        4.550496e-01
        23         1       -1.272608e+00
        24         1        6.945936e-01
        25         1        6.660468e-01
        26         1        6.241875e-01
        27         1       -7.948014e-01
        28         1       -3.247485e-01
        29         1        4.436439e-01
        30         1       -2.615902e-03
        31         1       -7.498654e-01
        32         1        1.092967e+00
        33         1       -1.254426e+00
        34         1       -1.082954e+00
        35         1       -7.417391e-01
        36         1       -2.115353e+00
        37         1        5.569492e-01
        38         1        1.412920e-01
        39         1       -1.668680e+00
        40         1       -4.815131e-01
        41         1        1.017338e-01
        42         1        7.149619e-01
        43         1       -1.025265e+00
        44         1       -1.105807e+00
        45         1        9.743194e-03
        46         1       -2.071212e-01
        47         1       -9.298265e-01
        48         1       -2.820034e-01
        49         1       -7.628377e-01
        50         1        2.542753e+00
        51         1        4.543404e-01
        52         1       -9.987586e-01
        53         1       -5.714763e-01
        54         1        2.039750e-01
        55         1       -1.005186e+00
        56         1        6.090820e-01
        57         1        1.415442e+00
        58         1        1.051051e+00
        59         1       -1.041633e-01
        60         1       -6.139059e-01
        61         1        4.871953e-01
        62         1        9.746320e-01
        63         1       -1.303534e-01
        64         1       -5.806331e-01
        65         1       -9.414126e-02
        66         1       -2.838634e-01
        67         1        3.750141e-01
        68         1        9.258980e-01
        69         1       -9.017935e-01
        70         1       -5.285148e-01
        71         1       -1.612291e-01
        72         1       -3.813514e-01
        73         1        3.302220e-02
        74         1       -1.666003e-01
        75         1        7.610717e-01
        76         1       -2.377296e-01
        77         1       -1.091233e+00
        78         1        8.265089e-01
        79         1       -6.979853e-01
        80         1       -3.146083e-01
        81         1       -6.892411e-02
        82         1        3.197573e+00
        83         1       -3.127678e-01
        84         1        1.908232e+00
        85         1        1.065581e+00
        86         1        2.026378e+00
        87         1       -4.255007e-02
        88         1        1.027075e+00
        89         1       -9.391792e-01
        90         1       -7.966734e-01
        91         1        6.202516e-03
        92         1       -9.156645e-01
        93         1        5.963871e-01
        94         1       -6.732670e-01
        95         1        6.646977e-01
        96         1       -9.656111e-01
        97         1        6.501828e-01
        98         1        8.500665e-01
        99         1       -1.652214e+00
       100         1       -6.971585e-01
         1         2       -8.461202e-01
         2         2        5.180530e-01
         3         2       -4.622501e-01
         4         2       -2.769713e-01
         5         2       -7.638354e-01
         6         2        1.717926e+00
         7         2        1.244197e+00
         8         2       -1.151097e-01
         9         2        5.401622e-01
        10         2       -1.074246e+00
        11         2        7.275363e-01
        12         2       -1.309833e-01
        13         2        1.688216e-01
        14         2        1.181418e+00
        15         2        4.656624e-01
        16         2        1.664796e+00
        17         2       -6.141181e-01
        18         2        1.754096e-02
        19         2       -1.893404e-01
        20         2       -9.752386e-01
        21         2        2.020145e-01
        22         2        1.150133e-01
        23         2        1.408840e-01
        24         2       -5.048321e-01
        25         2       -8.027323e-02
        26         2       -1.632579e-01
        27         2        1.292105e+00
        28         2       -4.871115e-01
        29         2        1.936440e+00
        30         2        3.717896e-02
        31         2        4.789857e-02
        32         2       -8.516471e-01
        33         2       -1.399367e+00
        34         2        2.517729e-01
        35         2        7.005562e-01
        36         2        1.818627e+00
        37         2        1.675846e+00
        38         2        1.103278e+00
        39         2       -4.846723e-02
        40         2       -1.686311e+00
        41         2        2.207083e-01
        42         2        7.099072e-01
        43         2        8.256223e-01
        44         2       -2.660373e-01
        45         2        8.032445e-01
        46         2       -3.879639e-02
        47         2       -1.526809e+00
        48         2        4.542838e-01
        49         2       -5.972081e-01
        50         2       -1.934487e-01
        51         2       -1.358736e+00
        52         2        2.218877e-01
        53         2        4.643622e-01
        54         2        6.139101e-01
        55         2        1.119652e+00
        56         2        1.157688e+00
        57         2        1.250422e+00
        58         2        4.975898e-01
        59         2        1.828649e+00
        60         2        1.304149e+00
        61         2       -1.403363e+00
        62         2        5.665687e-01
        63         2        3.354539e-02
        64         2       -9.051103e-01
        65         2       -8.713400e-01
        66         2        6.723870e-02
        67         2       -2.139653e+00
        68         2        3.260529e-01
        69         2        1.119848e+00
        70         2       -6.911846e-01
        71         2        5.379985e-01
        72         2        1.439363e+00
        73         2       -4.818287e-01
        74         2        1.898431e-01
        75         2       -7.637647e-02
        76         2       -7.070029e-01
        77         2       -1.197483e-01
        78         2       -5.582002e-02
        79         2        6.759708e-01
        80         2        4.100297e-01
        81         2       -1.381948e+00
        82         2        1.173153e+00
        83         2        5.236587e-01
        84         2        4.714459e-01
        85         2        4.114380e-01
        86         2       -7.555138e-01
        87         2        5.728975e-01
        88         2        1.229754e+00
        89         2       -6.649255e-03
        90         2        4.622432e-01
        91         2       -3.264736e-01
        92         2        5.063695e-01
        93         2       -7.818954e-01
        94         2        2.156211e+00
        95         2       -7.284378e-01
        96         2        2.842124e-01
        97         2       -1.048409e+00
        98         2        3.419577e-01
        99         2       -1.166424e+00
       100         2        9.659395e-01
         1         3       -6.711928e-01
         2         3       -1.473406e+00
         3         3       -1.551184e+00
         4         3        2.425445e-01
         5         3        1.432185e+00
         6         3        1.022267e+00
         7         3        9.395385e-01
         8         3       -3.376867e-01
         9         3       -1.856312e+00
        10         3       -7.914600e-01
        11         3        1.744540e+00
        12         3        3.143866e-01
        13         3       -8.487659e-02
        14         3       -4.270651e-01
        15         3        1.834482e+00
        16         3       -2.944795e-01
        17         3       -3.631348e-01
        18         3        1.970731e+00
        19         3       -2.533628e-01
        20         3        1.689264e-01
        21         3        1.534731e+00
        22         3        2.086426e+00
        23         3        1.023980e+00
        24         3        3.137909e-01
        25         3        6.778980e-01
        26         3        1.042452e+00
        27         3       -8.441275e-01
        28         3       -6.241042e-01
        29         3        5.725493e-01
        30         3        1.279269e+00
        31         3       -4.265559e-01
        32         3        1.972539e-01
        33         3       -4.706656e-03
        34         3        1.816133e-02
        35         3       -1.282642e+00
        36         3        5.606643e-01
        37         3       -3.447073e-01
        38         3        1.510273e+00
        39         3       -8.587353e-02
        40         3       -9.107429e-01
        41         3       -4.843529e-01
        42         3        6.170833e-02
        43         3        8.599508e-01
        44         3        3.280515e-01
        45         3       -6.153308e-01
        46         3       -6.186397e-01
        47         3        1.356968e-01
        48         3       -4.998492e-01
        49         3        1.731431e-01
        50         3        7.088240e-01
        51         3       -5.708981e-01
        52         3        1.044738e+00
        53         3       -1.623868e+00
        54         3       -5.413056e-02
        55         3        5.680008e-02
        56         3       -8.174357e-02
        57         3       -1.707902e+00
        58         3       -1.902520e-01
        59         3       -4.893550e-01
        60         3       -1.546094e-01
        61         3       -2.321491e+00
        62         3        1.433714e+00
        63         3        1.442322e-01
        64         3        4.010383e-01
        65         3        8.100837e-01
        66         3       -1.864583e+00
        67         3       -7.981485e-01
        68         3       -4.050455e-01
        69         3       -1.326968e-01
        70         3        6.023723e-01
        71         3        5.165317e-01
        72         3       -2.443126e-01
        73         3       -8.069118e-01
        74         3        7.268253e-01
        75         3        4.816345e-01
        76         3       -8.219068e-02
        77         3       -1.175135e-02
        78         3        8.751702e-01
        79         3       -1.026906e+00
        80         3       -1.544242e-01
        81         3        1.308972e+00
        82         3        1.799972e+00
        83         3        6.131090e-01
        84         3       -6.211827e-01
        85         3       -1.348129e+00
        86         3       -6.678383e-02
        87         3       -1.232037e+00
        88         3       -6.660191e-01
        89         3        7.433732e-01
        90         3       -4.934006e-01
        91         3        8.633299e-01
        92         3       -1.264923e+00
        93         3       -9.723017e-01
        94         3        8.636663e-04
        95         3        6.764662e-01
        96         3        2.656896e-01
        97         3       -3.211225e-01
        98         3       -2.654730e-01
        99         3        5.326848e-02
       100         3       -1.089891e+00
         1         4        4.578074e-01
         2         4        5.356061e-01
         3         4        8.626765e-01
         4         4        5.365543e-01
         5         4        5.026209e-01
         6         4       -5.523478e-01
         7         4       -5.299706e-01
         8         4       -8.660167e-01
         9         4       -4.238693e-01
        10         4       -1.896051e+00
        11         4        3.946977e-01
        12         4        4.482372e-01
        13         4       -1.629548e-01
        14         4        1.769492e+00
        15         4       -3.289042e-01
        16         4       -2.215823e+00
        17         4        6.846854e-01
        18         4       -1.738184e+00
        19         4        5.573402e-02
        20         4        2.357915e+00
        21         4        1.595167e+00
        22         4       -4.306137e-01
        23         4       -1.619612e+00
        24         4       -8.705388e-01
        25         4        1.206029e+00
        26         4       -2.288903e+00
        27         4       -5.430691e-01
        28         4        1.274131e+00
        29         4       -2.018458e-01
        30         4        4.625366e-01
        31         4        6.850000e-01
        32         4       -1.555490e+00
        33         4        6.027103e-01
        34         4       -8.917622e-01
        35         4       -1.982876e+00
        36         4        1.172801e+00
        37         4       -1.134871e+00
        38         4       -5.850061e-01
        39         4       -1.030830e+00
        40         4        2.178988e-01
        41         4        1.416704e+00
        42         4        2.777805e+00
        43         4       -1.315919e+00
        44         4        7.834650e-02
        45         4        4.354202e-01
        46         4       -3.649453e-01
        47         4       -5.752893e-01
        48         4        6.917138e-01
        49         4        2.381310e-01
        50         4        7.837635e-01
        51         4        5.591907e-01
        52         4       -3.126581e-01
        53         4        2.175713e-01
        54         4        4.655665e-01
        55         4       -5.221340e-01
        56         4       -1.276033e+00
        57         4        9.635951e-01
        58         4        5.897212e-01
        59         4       -2.664701e-01
        60         4       -1.729535e-01
        61         4       -4.158304e-02
        62         4       -8.667177e-02
        63         4        6.080415e-01
        64         4        1.044191e+00
        65         4        9.867567e-01
        66         4        2.894406e-01
        67         4        6.088056e-01
        68         4       -1.770429e-01
        69         4        4.536227e-01
        70         4       -2.960898e-01
        71         4        1.187176e+00
        72         4        9.912955e-01
        73         4        6.248674e-02
        74         4       -2.833885e-01
        75         4       -7.525597e-01
        76         4       -9.424754e-01
        77         4       -5.251674e-01
        78         4       -1.258330e+00
        79         4        6.848164e-01
        80         4        3.319150e-02
        81         4       -7.846143e-02
        82         4       -4.348477e-02
        83         4       -1.291795e+00
        84         4       -1.257934e+00
        85         4       -9.513366e-01
        86         4       -1.196554e+00
        87         4        8.095176e-01
        88         4       -1.153810e+00
        89         4       -4.751481e-01
        90         4       -3.072290e-02
        91         4       -2.804668e-01
        92         4        2.329884e-01
        93         4       -5.548339e-01
        94         4       -1.213295e-01
        95         4        8.726403e-02
        96         4        5.886439e-01
        97         4       -1.009240e+00
        98         4        1.093541e-02
        99         4       -5.246987e-01
       100         4       -4.814727e-01
         1         5       -1.595666e+00
         2         5        3.018547e-01
         3         5       -6.230669e-01
         4         5       -2.044231e-01
         5         5        4.069032e-01
         6         5        1.645785e-01
         7         5       -2.490565e+00
         8         5       -2.720415e-01
         9         5       -3.817008e-01
        10         5       -1.423392e+00
        11         5       -6.500457e-01
        12         5       -9.265370e-01
        13         5        1.110198e+00
        14         5       -5.872123e-01
        15         5       -7.565305e-01
        16         5        1.297902e-01
        17         5        1.270626e+00
        18         5       -9.274950e-01
        19         5       -1.110715e+00
        20         5        1.450928e+00
        21         5       -1.324387e+00
        22         5        3.079791e-01
        23         5        1.539583e+00
        24         5       -9.625652e-01
        25         5        9.284215e-01
        26         5       -3.715532e-01
        27         5       -1.726584e-01
        28         5        2.484877e-01
        29         5        2.438467e-01
        30         5        2.939064e-01
        31         5        1.887887e+00
        32         5       -5.209763e-02
        33         5        4.764669e-01
        34         5       -8.232858e-01
        35         5        1.125057e+00
        36         5       -4.509262e-02
        37         5       -3.894479e-01
        38         5       -1.584824e-01
        39         5        1.168252e+00
        40         5        4.193755e-01
        41         5        4.718543e-01
        42         5        1.069779e+00
        43         5        6.306410e-01
        44         5        8.004262e-01
        45         5       -1.209312e+00
        46         5       -1.838704e-01
        47         5       -2.798013e-01
        48         5       -1.224212e+00
        49         5       -4.718796e-01
        50         5        5.369174e-01
        51         5       -1.038892e+00
        52         5        7.280477e-01
        53         5       -1.042680e-01
        54         5        1.024452e+00
        55         5       -1.529055e+00
        56         5        5.768872e-01
        57         5        1.890421e-01
        58         5        2.468063e-01
        59         5        2.008497e+00
        60         5       -1.178344e+00
        61         5        1.938309e-01
        62         5        7.626726e-01
        63         5       -6.680575e-01
        64         5        8.557875e-01
        65         5        2.466150e+00
        66         5       -9.421551e-02
        67         5        1.368058e+00
        68         5       -9.845989e-01
        69         5        7.416609e-01
        70         5       -1.058238e+00
        71         5        2.304596e+00
        72         5        1.044023e+00
        73         5       -1.141605e+00
        74         5       -2.063678e-01
        75         5        4.073036e-01
        76         5       -2.083012e-01
        77         5        1.598718e+00
        78         5       -1.013384e+00
        79         5        3.425292e-01
        80         5        2.570713e-02
        81         5        7.598955e-01
        82         5        5.915360e-01
        83         5       -8.382181e-01
        84         5       -6.258440e-01
        85         5       -6.246971e-01
        86         5       -3.703394e-01
        87         5        4.778862e-01
        88         5       -1.578505e+00
        89         5        4.100140e-01
        90         5        7.237385e-01
        91         5       -1.546285e+00
        92         5       -7.327965e-01
        93         5       -4.891431e-01
        94         5       -7.706117e-01
        95         5       -1.044523e+00
        96         5        1.882318e-01
        97         5        1.777727e+00
        98         5        1.539869e+00
        99         5       -4.246249e-02
       100         5       -1.035261e+00
;

param theta:=
    1        1.846187e+00
    2       -1.491307e+00
    3       -7.181554e-01
    4        6.847903e-01
    5       -1.058099e+00
;
param X_true:=
    1        2.697777e+00
    2        8.667074e-01
    3        5.342709e+00
    4       -1.109668e+00
    5        9.758247e-01
    6       -4.806164e+00
    7        7.348545e-01
    8        8.621659e-01
    9       -6.224300e-01
   10        3.644378e+00
   11       -3.511366e+00
   12        1.450773e+00
   13       -2.271885e+00
   14       -8.328147e-01
   15       -3.601906e+00
   16       -5.692305e+00
   17       -5.472003e-01
   18       -2.808659e+00
   19        6.132100e-01
   20        1.188707e+00
   21        2.331634e+00
   22       -1.371183e+00
   23       -6.102576e+00
   24        2.190748e+00
   25        9.087791e-01
   26       -3.499677e-01
   27       -3.026727e+00
   28        1.152414e+00
   29       -2.816956e+00
   30       -9.834468e-01
   31       -2.558326e+00
   32        2.022879e+00
   33       -3.119569e-01
   34       -2.092075e+00
   35       -4.070088e+00
   36       -6.271027e+00
   37       -1.676483e+00
   38       -2.727490e+00
   39       -4.911081e+00
   40        2.164598e+00
   41        6.633474e-01
   42        9.852431e-01
   43       -5.333280e+00
   44       -2.827011e+00
   45        9.039857e-01
   46       -8.310953e-02
   47        5.183686e-01
   48        1.086824e+00
   49        4.887042e-02
   50        4.451782e+00
   51        4.715171e+00
   52       -3.902284e+00
   53       -3.139487e-01
   54       -1.131912e+00
   55       -2.273120e+00
   56       -2.008659e+00
   57        2.437404e+00
   58        1.503723e+00
   59       -4.838626e+00
   60       -1.831608e+00
   61        4.416296e+00
   62       -1.190734e+00
   63        7.225678e-01
   64       -4.100420e-01
   65       -1.342535e+00
   66        1.153054e+00
   67        3.462474e+00
   68        2.399911e+00
   69       -3.657438e+00
   70        6.397071e-01
   71       -3.054602e+00
   72       -3.173044e+00
   73        2.587957e+00
   74       -9.225106e-01
   75        2.493599e-01
   76        4.438171e-01
   77       -3.774614e+00
   78        1.262854e+00
   79       -1.528881e+00
   80       -1.130465e+00
   81        1.991357e-01
   82        2.426332e+00
   83       -1.794557e+00
   84        3.041263e+00
   85        2.363500e+00
   86        4.697943e+00
   87       -1.619559e-01
   88        1.302120e+00
   89       -2.884242e+00
   90       -2.583245e+00
   91        1.254788e+00
   92       -5.396604e-01
   93        3.113760e+00
   94       -3.761967e+00
   95        2.929207e+00
   96       -2.336759e+00
   97        5.320201e-01
   98       -4.456976e-01
   99       -1.881205e+00
  100       -1.099406e+00
;
param X:=
    1       -2.445903e-01
    2        2.136903e-01
    3       -1.111946e+00
    4       -1.537046e+00
    5       -5.289214e-01
    6       -9.720395e-01
    7        1.047922e+00
    8        8.621659e-01
    9       -6.224300e-01
   10        1.199908e-01
   11        2.942168e-02
   12        5.987083e-02
   13       -1.986605e-01
   14       -1.362172e-02
   15        5.823166e-01
   16        6.898368e-01
   17        1.169428e+00
   18       -2.808659e+00
   19        1.866071e-01
   20       -1.905152e-01
   21        6.144905e-01
   22       -1.056777e+00
   23        1.427029e+00
   24        1.469627e+00
   25        2.931292e-01
   26       -3.671349e-01
   27        7.638814e-01
   28        1.152414e+00
   29        7.801253e-03
   30        7.147750e-01
   31       -1.214989e+00
   32        2.022879e+00
   33       -4.262101e-01
   34       -1.392819e+00
   35        4.639747e-01
   36       -1.397899e-01
   37       -2.443446e-01
   38        1.292835e+00
   39        7.737609e-02
   40       -6.281412e-01
   41        6.633474e-01
   42        1.267225e+00
   43        6.952311e-01
   44       -4.835891e-01
   45        4.365240e-01
   46       -8.310953e-02
   47        4.816866e-01
   48        1.772919e-01
   49        2.378443e-01
   50        7.788865e-01
   51       -6.062696e-01
   52       -3.902284e+00
   53       -2.835226e-01
   54        5.591967e-01
   55        8.832047e-01
   56       -6.190024e-01
   57        3.658356e-01
   58       -7.789507e-01
   59       -6.064516e-01
   60       -1.831608e+00
   61        4.416296e+00
   62        2.237069e-01
   63        1.575114e+00
   64       -4.100420e-01
   65        9.147685e-01
   66       -3.894948e-01
   67       -8.610002e-01
   68        2.156882e-01
   69        4.627280e-01
   70        7.071157e-01
   71       -4.336442e-01
   72        7.817871e-01
   73       -1.400706e+00
   74        3.187057e-01
   75        2.493599e-01
   76       -3.838736e-01
   77        3.755529e-01
   78       -1.030852e+00
   79       -1.528881e+00
   80        3.595464e-02
   81        1.991357e-01
   82        1.369734e-01
   83        1.535929e+00
   84        1.212450e+00
   85        5.305349e-01
   86        7.780895e-01
   87        1.486799e+00
   88       -1.027504e+00
   89        1.318749e+00
   90       -8.793002e-01
   91        1.172513e+00
   92        7.709827e-01
   93        1.956083e+00
   94        1.018472e+00
   95        1.369337e+00
   96       -1.550486e-01
   97       -4.323341e-01
   98       -5.443477e-01
   99        1.464708e+00
  100        4.330997e-01
;
param outliervec:=
    1    1
    2    1
    3    1
    4    1
    5    1
    6    1
    7    1
    8    0
    9    0
   10    1
   11    1
   12    1
   13    1
   14    1
   15    1
   16    1
   17    1
   18    0
   19    1
   20    1
   21    1
   22    1
   23    1
   24    1
   25    1
   26    1
   27    1
   28    0
   29    1
   30    1
   31    1
   32    0
   33    1
   34    1
   35    1
   36    1
   37    1
   38    1
   39    1
   40    1
   41    0
   42    1
   43    1
   44    1
   45    1
   46    0
   47    1
   48    1
   49    1
   50    1
   51    1
   52    0
   53    1
   54    1
   55    1
   56    1
   57    1
   58    1
   59    1
   60    0
   61    0
   62    1
   63    1
   64    0
   65    1
   66    1
   67    1
   68    1
   69    1
   70    1
   71    1
   72    1
   73    1
   74    1
   75    0
   76    1
   77    1
   78    1
   79    0
   80    1
   81    0
   82    1
   83    1
   84    1
   85    1
   86    1
   87    1
   88    1
   89    1
   90    1
   91    1
   92    1
   93    1
   94    1
   95    1
   96    1
   97    1
   98    1
   99    1
  100    1
;